Traveling Salesman Problem/TSP_generados/Aleatorio1620394539_17.tsp
NAME: Aleatorio1620394539_17.tsp
COMMENT: Randomly generated scenario
TYPE: TSP
DIMENSION: 17
EDGE_WEIGHT_TYPE: ATT
NODE_COORD_SECTION
1 9.3 45.63
2 7.94 38.36
3 10.4 29.74
4 40.82 33.62
5 48.06 24.09
6 11.65 14.57
7 47.51 25.16
8 14.41 15.84
9 9.38 46.9
10 22.48 26.42
11 19.38 18.68
12 26.66 16.47
13 13.59 24.34
14 41.15 35.75
15 46.38 11.11
16 29.24 39.42
17 26.83 29.41
