Traveling Salesman Problem/TSP_generados/Aleatorio1620394539_17.opt.tour
NAME: Aleatorio1620394539_17.opt.tour
COMMENT: Optimal solution for Aleatorio1620394539_17 (150.25204197685565)
TYPE: TOUR
DIMENSION: 17
TOUR_SECTION
1 9 10 17 16 14 4 7 5 15 12 11 8 6 13 3 2
-1
EOF
